51 15 37 41 12 48 5 74 42 82 96 64 46 92 95 17 11 18 33 86 31 90 89 9 10 85 16 0 49 28 14 98 80 35 83 71 91 65 47 63 76 60 61 58 68 87 34 50 3 19 21 67 70 24 57 45 25 99 73 59 97 84 56 78 69 22 7 2 27 94 32 53 8 20 1 6 72 79 52 30 29 44 88 54 81 26 43 77 4 40 13 55 93 23 66 39 36 38 62 75 

